cvc5/9519.corecstrs.readable_hard.smt2
(set-info :smt-lib-version 2.6)
(set-logic QF_SLIA)
(set-info :source |
Generated by: Andrew Reynolds
Generated on: 2018-04-25
Generator: Kudzu, converted to v2.6 by CVC4
Application: Symbolic Execution of Javascript
Target solver: Kaluza
Publications: "A symbolic execution framework for JavaScript" by P. Saxena, D. Akhawe, S. Hanna, F. Mao, S. McCamant, and D. Song, 2010.
|)
(set-info :license "https://creativecommons.org/licenses/by/4.0/")
(set-info :category "industrial")
(set-info :status unknown)



(declare-fun T_1 () Bool)
(declare-fun T_2 () Bool)
(declare-fun var_0xINPUT_456790 () String)
(declare-const part_0_5603 String)
(declare-const part_1_9361 String)
(assert (= T_1 (= var_0xINPUT_456790 "Search")))
(assert (= T_2 (not T_1)))
(assert T_2)
(assert (= (str.split_at var_0xINPUT_456790 "=>" 2) part_0_5603))
(assert (= (str.len part_0_5603) 10))
(assert (= (str.split_at var_0xINPUT_456790 "=>" 2) part_1_9361))
(assert (str.contains part_1_9361 "e"))
(assert (= (str.split_rest var_0xINPUT_456790 "=>" 3) "p8s8ywrz4sm2j"))
(assert (= (str.num_splits var_0xINPUT_456790 "=>") 3))
(assert (= (str.num_splits var_0xINPUT_456790 "=>") 3))
(assert (and (>= (str.num_splits var_0xINPUT_456790 "=>") 1) (<= (str.num_splits var_0xINPUT_456790 "=>") 5)))
(assert (and (>= (str.num_splits var_0xINPUT_456790 "=>") 2) (<= (str.num_splits var_0xINPUT_456790 "=>") 5)))
(check-sat)

(get-model)
