cvc5/9519.corecstrs.readable_hard.txt
(define-fun T_1 () Bool false)
(define-fun T_2 () Bool true)
(define-fun var_0xINPUT_456790 () String "")
(define-fun part_0_5603 () String "AAAAAAAAAe")
(define-fun part_1_9361 () String "AAAAAAAAAe")